(declare-const c_0 Real)
(declare-const c_1 Real)
(declare-const c_2 Real)
(declare-const c_3 Real)
(declare-const c_4 Real)
(declare-const c_5 Real)
(declare-const c_6 Real)
(declare-const c_7 Real)
(declare-const c_8 Real)
(declare-const c_9 Real)
(declare-const c_10 Real)
(declare-const c_11 Real)
(declare-const c_12 Real)
(declare-const c_13 Real)
(declare-const c_14 Real)
(declare-const c_15 Real)
(declare-const c_16 Real)
(declare-const c_17 Real)
(declare-const c_18 Real)
(declare-const c_19 Real)
(declare-const c_20 Real)
(declare-const c_21 Real)
(declare-const c_22 Real)
(declare-const c_23 Real)
(declare-const c_24 Real)
(declare-const c_25 Real)
(declare-const c_26 Real)
(declare-const c_27 Real)
(declare-const c_28 Real)
(declare-const c_29 Real)
(declare-const c_30 Real)
(declare-const c_31 Real)
(declare-const c_32 Real)
(declare-const c_33 Real)
(declare-const c_34 Real)
(declare-const c_35 Real)
(declare-const c_36 Real)
(declare-const c_37 Real)
(declare-const c_38 Real)
(declare-const c_39 Real)
(declare-const c_40 Real)
(declare-const c_41 Real)
(declare-const c_42 Real)
(declare-const c_43 Real)
(declare-const c_44 Real)
(declare-const c_45 Real)
(declare-const c_46 Real)
(declare-const c_47 Real)
(declare-const c_48 Real)
(declare-const c_49 Real)
(declare-const c_50 Real)
(declare-const c_51 Real)
(declare-const c_52 Real)
(declare-const c_53 Real)
(declare-const c_54 Real)
(declare-const c_55 Real)
(declare-const c_56 Real)
(declare-const c_57 Real)
(declare-const c_58 Real)
(declare-const c_59 Real)
(declare-const s_0 Real)
(declare-const s_1 Real)
(declare-const s_2 Real)
(declare-const s_3 Real)
(declare-const s_4 Real)
(declare-const s_5 Real)
(declare-const s_6 Real)
(declare-const s_7 Real)
(declare-const s_8 Real)
(declare-const s_9 Real)
(declare-const s_10 Real)
(declare-const s_11 Real)
(declare-const s_12 Real)
(declare-const s_13 Real)
(declare-const s_14 Real)
(declare-const s_15 Real)
(declare-const s_16 Real)
(declare-const s_17 Real)
(declare-const s_18 Real)
(declare-const s_19 Real)
(declare-const s_20 Real)
(declare-const s_21 Real)
(declare-const s_22 Real)
(declare-const s_23 Real)
(declare-const s_24 Real)
(declare-const s_25 Real)
(declare-const s_26 Real)
(declare-const s_27 Real)
(declare-const s_28 Real)
(declare-const s_29 Real)
(declare-const s_30 Real)
(declare-const s_31 Real)
(declare-const s_32 Real)
(declare-const s_33 Real)
(declare-const s_34 Real)
(declare-const s_35 Real)
(declare-const s_36 Real)
(declare-const s_37 Real)
(declare-const s_38 Real)
(declare-const s_39 Real)
(declare-const s_40 Real)
(declare-const s_41 Real)
(declare-const s_42 Real)
(declare-const s_43 Real)
(declare-const s_44 Real)
(declare-const s_45 Real)
(declare-const s_46 Real)
(declare-const s_47 Real)
(declare-const s_48 Real)
(declare-const s_49 Real)
(declare-const s_50 Real)
(declare-const s_51 Real)
(declare-const s_52 Real)
(declare-const s_53 Real)
(declare-const s_54 Real)
(declare-const s_55 Real)
(declare-const s_56 Real)
(declare-const s_57 Real)
(declare-const s_58 Real)
(declare-const s_59 Real)
(assert (forall ((res Real) (xtmp Real) (x Real) (restmp Real) ) (=> (and (>= (+ (* 1024 1) (* 1 res ) ) 0) (>= (+ (* 1023 1) (* (- 1) res ) ) 0) (>= (+ (* 1024 1) (* 1 xtmp ) ) 0) (>= (+ (* 1023 1) (* (- 1) xtmp ) ) 0) (>= (+ (* 1024 1) (* 1 x ) ) 0) (>= (+ (* 1023 1) (* (- 1) x ) ) 0) (>= (+ (* 1024 1) (* 1 restmp ) ) 0) (>= (+ (* 1023 1) (* (- 1) restmp ) ) 0) ) (>= (+ (* 1 res restmp s_2 ) (* 1 res s_1 ) (* 1 res s_3 x ) (* 1 res s_4 xtmp ) (* 1 res res s_5 ) (* 1 restmp s_6 ) (* 1 restmp s_7 x ) (* 1 restmp s_8 xtmp ) (* 1 restmp restmp s_9 ) (* 1 s_0 ) (* 1 s_10 x ) (* 1 s_11 x xtmp ) (* 1 s_12 x x ) (* 1 s_13 xtmp ) (* 1 s_14 xtmp xtmp ) ) 0) )))
(assert (forall ((res Real) (xtmp Real) (x Real) (restmp Real) ) (=> (and (>= (+ (* 1024 1) (* 1 res ) ) 0) (>= (+ (* 1023 1) (* (- 1) res ) ) 0) (>= (+ (* 1024 1) (* 1 xtmp ) ) 0) (>= (+ (* 1023 1) (* (- 1) xtmp ) ) 0) (>= (+ (* 1024 1) (* 1 x ) ) 0) (>= (+ (* 1023 1) (* (- 1) x ) ) 0) (>= (+ (* 1024 1) (* 1 restmp ) ) 0) (>= (+ (* 1023 1) (* (- 1) restmp ) ) 0) ) (>= (+ (* 1 c_0 ) (* 1 c_1 res ) (* 1 c_10 x ) (* 1 c_11 x xtmp ) (* 1 c_12 x x ) (* 1 c_13 xtmp ) (* 1 c_14 xtmp xtmp ) (* 1 c_2 res restmp ) (* 1 c_3 res x ) (* 1 c_4 res xtmp ) (* 1 c_5 res res ) (* 1 c_6 restmp ) (* 1 c_7 restmp x ) (* 1 c_8 restmp xtmp ) (* 1 c_9 restmp restmp ) ) 0) )))
(assert (forall ((res Real) (xtmp Real) (x Real) (restmp Real) ) (=> (and (>= (+ (* 1023 1) (* (- 1) restmp ) ) 0) (>= (+ (* 1024 1) (* 1 restmp ) ) 0) (>= (+ (* 1023 1) (* (- 1) x ) ) 0) (>= (+ (* 1024 1) (* 1 x ) ) 0) (>= (+ (* 1023 1) (* (- 1) xtmp ) ) 0) (>= (+ (* 1024 1) (* 1 xtmp ) ) 0) (>= (+ (* 1023 1) (* (- 1) res ) ) 0) (>= (+ (* 1024 1) (* 1 res ) ) 0) (>= (+ (* 1 res restmp s_2 ) (* 1 res s_1 ) (* 1 res s_3 x ) (* 1 res s_4 xtmp ) (* 1 res res s_5 ) (* 1 restmp s_6 ) (* 1 restmp s_7 x ) (* 1 restmp s_8 xtmp ) (* 1 restmp restmp s_9 ) (* 1 s_0 ) (* 1 s_10 x ) (* 1 s_11 x xtmp ) (* 1 s_12 x x ) (* 1 s_13 xtmp ) (* 1 s_14 xtmp xtmp ) ) 0) ) (>= (+ (* 1 restmp s_36 ) (* 1 restmp s_37 x ) (* 1 restmp s_38 xtmp ) (* 1 restmp restmp s_39 ) (* 1 s_30 ) (* 1 s_40 x ) (* 1 s_41 x xtmp ) (* 1 s_42 x x ) (* 1 s_43 xtmp ) (* 1 s_44 xtmp xtmp ) ) 0) )))
(assert (forall ((res Real) (xtmp Real) (x Real) (restmp Real) ) (=> (and (>= (+ (* 1023 1) (* (- 1) restmp ) ) 0) (>= (+ (* 1024 1) (* 1 restmp ) ) 0) (>= (+ (* 1023 1) (* (- 1) x ) ) 0) (>= (+ (* 1024 1) (* 1 x ) ) 0) (>= (+ (* 1023 1) (* (- 1) xtmp ) ) 0) (>= (+ (* 1024 1) (* 1 xtmp ) ) 0) (>= (+ (* 1023 1) (* (- 1) res ) ) 0) (>= (+ (* 1024 1) (* 1 res ) ) 0) (>= (+ (* 1 res restmp s_2 ) (* 1 res s_1 ) (* 1 res s_3 x ) (* 1 res s_4 xtmp ) (* 1 res res s_5 ) (* 1 restmp s_6 ) (* 1 restmp s_7 x ) (* 1 restmp s_8 xtmp ) (* 1 restmp restmp s_9 ) (* 1 s_0 ) (* 1 s_10 x ) (* 1 s_11 x xtmp ) (* 1 s_12 x x ) (* 1 s_13 xtmp ) (* 1 s_14 xtmp xtmp ) ) 0) ) (>= (+ (* 1 c_30 ) (* 1 c_36 restmp ) (* 1 c_37 restmp x ) (* 1 c_38 restmp xtmp ) (* 1 c_39 restmp restmp ) (* 1 c_40 x ) (* 1 c_41 x xtmp ) (* 1 c_42 x x ) (* 1 c_43 xtmp ) (* 1 c_44 xtmp xtmp ) ) 0) )))
(assert (forall ((res Real) (xtmp Real) (x Real) (restmp Real) ) (=> (and (>= (+ (* 1023 1) (* (- 1) restmp ) ) 0) (>= (+ (* 1024 1) (* 1 restmp ) ) 0) (>= (+ (* 1023 1) (* (- 1) x ) ) 0) (>= (+ (* 1024 1) (* 1 x ) ) 0) (>= (+ (* 1023 1) (* (- 1) xtmp ) ) 0) (>= (+ (* 1024 1) (* 1 xtmp ) ) 0) (>= (+ (* 1023 1) (* (- 1) res ) ) 0) (>= (+ (* 1024 1) (* 1 res ) ) 0) (>= (+ (* 1 res restmp s_2 ) (* 1 res s_1 ) (* 1 res s_3 x ) (* 1 res s_4 xtmp ) (* 1 res res s_5 ) (* 1 restmp s_6 ) (* 1 restmp s_7 x ) (* 1 restmp s_8 xtmp ) (* 1 restmp restmp s_9 ) (* 1 s_0 ) (* 1 s_10 x ) (* 1 s_11 x xtmp ) (* 1 s_12 x x ) (* 1 s_13 xtmp ) (* 1 s_14 xtmp xtmp ) ) 0) ) (>= (+ (* (- 1) 1) (* 1 c_0 ) (* 1 c_1 res ) (* 1 c_10 x ) (* 1 c_11 x xtmp ) (* 1 c_12 x x ) (* 1 c_13 xtmp ) (* 1 c_14 xtmp xtmp ) (* 1 c_2 res restmp ) (* 1 c_3 res x ) (* (- 1) c_30 ) (* (- 1) c_36 restmp ) (* (- 1) c_37 restmp x ) (* (- 1) c_38 restmp xtmp ) (* (- 1) c_39 restmp restmp ) (* 1 c_4 res xtmp ) (* (- 1) c_40 x ) (* (- 1) c_41 x xtmp ) (* (- 1) c_42 x x ) (* (- 1) c_43 xtmp ) (* (- 1) c_44 xtmp xtmp ) (* 1 c_5 res res ) (* 1 c_6 restmp ) (* 1 c_7 restmp x ) (* 1 c_8 restmp xtmp ) (* 1 c_9 restmp restmp ) ) 0) )))
(assert (forall ((res Real) (xtmp Real) (x Real) (restmp Real) ) (=> (and (>= (+ (* (- 2) 1) (* 1 xtmp ) ) 0) (>= (+ (* (- 2) 1) (* 1 x ) (* (- 1) xtmp ) ) 0) (>= (* 1 xtmp ) 0) (>= (* 1 res ) 0) (>= (+ (* (- 2) 1) (* (- 2) restmp ) (* 1 x ) (* (- 1) xtmp ) ) 0) (>= (+ (* 2 1) (* 2 restmp ) (* (- 1) x ) (* 1 xtmp ) ) 0) (>= (+ (* 1 res restmp s_17 ) (* 1 res s_16 ) (* 1 res s_18 x ) (* 1 res s_19 xtmp ) (* 1 res res s_20 ) (* 1 restmp s_21 ) (* 1 restmp s_22 x ) (* 1 restmp s_23 xtmp ) (* 1 restmp restmp s_24 ) (* 1 s_15 ) (* 1 s_25 x ) (* 1 s_26 x xtmp ) (* 1 s_27 x x ) (* 1 s_28 xtmp ) (* 1 s_29 xtmp xtmp ) ) 0) ) (>= (+ (* 1 res restmp s_17 ) (* 1 res s_16 ) (* 1 res s_17 ) (* 1 res s_18 x ) (* (- 2) res s_19 ) (* 1 res s_19 xtmp ) (* 1 res res s_20 ) (* 1 restmp s_21 ) (* 1 restmp s_22 x ) (* (- 2) restmp s_23 ) (* 1 restmp s_23 xtmp ) (* 2 restmp s_24 ) (* 1 restmp restmp s_24 ) (* 1 s_15 ) (* 1 s_21 ) (* 1 s_22 x ) (* (- 2) s_23 ) (* 1 s_23 xtmp ) (* 1 s_24 ) (* 1 s_25 x ) (* (- 2) s_26 x ) (* 1 s_26 x xtmp ) (* 1 s_27 x x ) (* (- 2) s_28 ) (* 1 s_28 xtmp ) (* 4 s_29 ) (* (- 4) s_29 xtmp ) (* 1 s_29 xtmp xtmp ) ) 0) )))
(assert (forall ((res Real) (xtmp Real) (x Real) (restmp Real) ) (=> (and (>= (+ (* (- 2) 1) (* 1 xtmp ) ) 0) (>= (+ (* (- 2) 1) (* 1 x ) (* (- 1) xtmp ) ) 0) (>= (* 1 xtmp ) 0) (>= (* 1 res ) 0) (>= (+ (* (- 2) 1) (* (- 2) restmp ) (* 1 x ) (* (- 1) xtmp ) ) 0) (>= (+ (* 2 1) (* 2 restmp ) (* (- 1) x ) (* 1 xtmp ) ) 0) (>= (+ (* 1 res restmp s_17 ) (* 1 res s_16 ) (* 1 res s_18 x ) (* 1 res s_19 xtmp ) (* 1 res res s_20 ) (* 1 restmp s_21 ) (* 1 restmp s_22 x ) (* 1 restmp s_23 xtmp ) (* 1 restmp restmp s_24 ) (* 1 s_15 ) (* 1 s_25 x ) (* 1 s_26 x xtmp ) (* 1 s_27 x x ) (* 1 s_28 xtmp ) (* 1 s_29 xtmp xtmp ) ) 0) ) (>= (+ (* 1 c_15 ) (* 1 c_16 res ) (* 1 c_17 res ) (* 1 c_17 res restmp ) (* 1 c_18 res x ) (* (- 2) c_19 res ) (* 1 c_19 res xtmp ) (* 1 c_20 res res ) (* 1 c_21 ) (* 1 c_21 restmp ) (* 1 c_22 restmp x ) (* 1 c_22 x ) (* (- 2) c_23 ) (* (- 2) c_23 restmp ) (* 1 c_23 restmp xtmp ) (* 1 c_23 xtmp ) (* 1 c_24 ) (* 2 c_24 restmp ) (* 1 c_24 restmp restmp ) (* 1 c_25 x ) (* (- 2) c_26 x ) (* 1 c_26 x xtmp ) (* 1 c_27 x x ) (* (- 2) c_28 ) (* 1 c_28 xtmp ) (* 4 c_29 ) (* (- 4) c_29 xtmp ) (* 1 c_29 xtmp xtmp ) ) 0) )))
(assert (forall ((res Real) (xtmp Real) (x Real) (restmp Real) ) (=> (and (>= (+ (* (- 2) 1) (* 1 xtmp ) ) 0) (>= (+ (* (- 2) 1) (* 1 x ) (* (- 1) xtmp ) ) 0) (>= (* 1 xtmp ) 0) (>= (* 1 res ) 0) (>= (+ (* (- 2) 1) (* (- 2) restmp ) (* 1 x ) (* (- 1) xtmp ) ) 0) (>= (+ (* 2 1) (* 2 restmp ) (* (- 1) x ) (* 1 xtmp ) ) 0) (>= (+ (* 1 res restmp s_17 ) (* 1 res s_16 ) (* 1 res s_18 x ) (* 1 res s_19 xtmp ) (* 1 res res s_20 ) (* 1 restmp s_21 ) (* 1 restmp s_22 x ) (* 1 restmp s_23 xtmp ) (* 1 restmp restmp s_24 ) (* 1 s_15 ) (* 1 s_25 x ) (* 1 s_26 x xtmp ) (* 1 s_27 x x ) (* 1 s_28 xtmp ) (* 1 s_29 xtmp xtmp ) ) 0) ) (>= (+ (* (- 1) 1) (* (- 1) c_17 res ) (* 2 c_19 res ) (* (- 1) c_21 ) (* (- 1) c_22 x ) (* 2 c_23 ) (* 2 c_23 restmp ) (* (- 1) c_23 xtmp ) (* (- 1) c_24 ) (* (- 2) c_24 restmp ) (* 2 c_26 x ) (* 2 c_28 ) (* (- 4) c_29 ) (* 4 c_29 xtmp ) ) 0) )))
(assert (forall ((res Real) (xtmp Real) (x Real) (restmp Real) ) (=> (and (>= (+ (* 1 1) (* (- 1) xtmp ) ) 0) (>= (+ (* (- 2) 1) (* 1 x ) (* (- 1) xtmp ) ) 0) (>= (* 1 xtmp ) 0) (>= (* 1 res ) 0) (>= (+ (* (- 2) 1) (* (- 2) restmp ) (* 1 x ) (* (- 1) xtmp ) ) 0) (>= (+ (* 2 1) (* 2 restmp ) (* (- 1) x ) (* 1 xtmp ) ) 0) (>= (+ (* 1 res restmp s_17 ) (* 1 res s_16 ) (* 1 res s_18 x ) (* 1 res s_19 xtmp ) (* 1 res res s_20 ) (* 1 restmp s_21 ) (* 1 restmp s_22 x ) (* 1 restmp s_23 xtmp ) (* 1 restmp restmp s_24 ) (* 1 s_15 ) (* 1 s_25 x ) (* 1 s_26 x xtmp ) (* 1 s_27 x x ) (* 1 s_28 xtmp ) (* 1 s_29 xtmp xtmp ) ) 0) ) (>= (+ (* 1 res restmp s_32 ) (* 1 res s_31 ) (* 1 res s_33 ) (* 1 res s_33 xtmp ) (* 1 res s_34 xtmp ) (* 2 res s_35 ) (* 1 res res s_35 ) (* 1 restmp s_32 ) (* 1 restmp s_36 ) (* 1 restmp s_37 ) (* 1 restmp s_37 xtmp ) (* 1 restmp s_38 xtmp ) (* 1 restmp restmp s_39 ) (* 1 s_30 ) (* 1 s_31 ) (* 1 s_33 ) (* 1 s_33 xtmp ) (* 1 s_34 xtmp ) (* 1 s_35 ) (* 1 s_40 ) (* 1 s_40 xtmp ) (* 1 s_41 xtmp ) (* 1 s_41 xtmp xtmp ) (* 1 s_42 ) (* 2 s_42 xtmp ) (* 1 s_42 xtmp xtmp ) (* 1 s_43 xtmp ) (* 1 s_44 xtmp xtmp ) ) 0) )))
(assert (forall ((res Real) (xtmp Real) (x Real) (restmp Real) ) (=> (and (>= (+ (* 1 1) (* (- 1) xtmp ) ) 0) (>= (+ (* (- 2) 1) (* 1 x ) (* (- 1) xtmp ) ) 0) (>= (* 1 xtmp ) 0) (>= (* 1 res ) 0) (>= (+ (* (- 2) 1) (* (- 2) restmp ) (* 1 x ) (* (- 1) xtmp ) ) 0) (>= (+ (* 2 1) (* 2 restmp ) (* (- 1) x ) (* 1 xtmp ) ) 0) (>= (+ (* 1 res restmp s_17 ) (* 1 res s_16 ) (* 1 res s_18 x ) (* 1 res s_19 xtmp ) (* 1 res res s_20 ) (* 1 restmp s_21 ) (* 1 restmp s_22 x ) (* 1 restmp s_23 xtmp ) (* 1 restmp restmp s_24 ) (* 1 s_15 ) (* 1 s_25 x ) (* 1 s_26 x xtmp ) (* 1 s_27 x x ) (* 1 s_28 xtmp ) (* 1 s_29 xtmp xtmp ) ) 0) ) (>= (+ (* 1 c_30 ) (* 1 c_31 ) (* 1 c_31 res ) (* 1 c_32 res restmp ) (* 1 c_32 restmp ) (* 1 c_33 ) (* 1 c_33 res ) (* 1 c_33 res xtmp ) (* 1 c_33 xtmp ) (* 1 c_34 res xtmp ) (* 1 c_34 xtmp ) (* 1 c_35 ) (* 2 c_35 res ) (* 1 c_35 res res ) (* 1 c_36 restmp ) (* 1 c_37 restmp ) (* 1 c_37 restmp xtmp ) (* 1 c_38 restmp xtmp ) (* 1 c_39 restmp restmp ) (* 1 c_40 ) (* 1 c_40 xtmp ) (* 1 c_41 xtmp ) (* 1 c_41 xtmp xtmp ) (* 1 c_42 ) (* 2 c_42 xtmp ) (* 1 c_42 xtmp xtmp ) (* 1 c_43 xtmp ) (* 1 c_44 xtmp xtmp ) ) 0) )))
(assert (forall ((res Real) (xtmp Real) (x Real) (restmp Real) ) (=> (and (>= (+ (* 1 1) (* (- 1) xtmp ) ) 0) (>= (+ (* (- 2) 1) (* 1 x ) (* (- 1) xtmp ) ) 0) (>= (* 1 xtmp ) 0) (>= (* 1 res ) 0) (>= (+ (* (- 2) 1) (* (- 2) restmp ) (* 1 x ) (* (- 1) xtmp ) ) 0) (>= (+ (* 2 1) (* 2 restmp ) (* (- 1) x ) (* 1 xtmp ) ) 0) (>= (+ (* 1 res restmp s_17 ) (* 1 res s_16 ) (* 1 res s_18 x ) (* 1 res s_19 xtmp ) (* 1 res res s_20 ) (* 1 restmp s_21 ) (* 1 restmp s_22 x ) (* 1 restmp s_23 xtmp ) (* 1 restmp restmp s_24 ) (* 1 s_15 ) (* 1 s_25 x ) (* 1 s_26 x xtmp ) (* 1 s_27 x x ) (* 1 s_28 xtmp ) (* 1 s_29 xtmp xtmp ) ) 0) ) (>= (+ (* (- 1) 1) (* 1 c_15 ) (* 1 c_16 res ) (* 1 c_17 res restmp ) (* 1 c_18 res x ) (* 1 c_19 res xtmp ) (* 1 c_20 res res ) (* 1 c_21 restmp ) (* 1 c_22 restmp x ) (* 1 c_23 restmp xtmp ) (* 1 c_24 restmp restmp ) (* 1 c_25 x ) (* 1 c_26 x xtmp ) (* 1 c_27 x x ) (* 1 c_28 xtmp ) (* 1 c_29 xtmp xtmp ) (* (- 1) c_30 ) (* (- 1) c_31 ) (* (- 1) c_31 res ) (* (- 1) c_32 res restmp ) (* (- 1) c_32 restmp ) (* (- 1) c_33 ) (* (- 1) c_33 res ) (* (- 1) c_33 res xtmp ) (* (- 1) c_33 xtmp ) (* (- 1) c_34 res xtmp ) (* (- 1) c_34 xtmp ) (* (- 1) c_35 ) (* (- 2) c_35 res ) (* (- 1) c_35 res res ) (* (- 1) c_36 restmp ) (* (- 1) c_37 restmp ) (* (- 1) c_37 restmp xtmp ) (* (- 1) c_38 restmp xtmp ) (* (- 1) c_39 restmp restmp ) (* (- 1) c_40 ) (* (- 1) c_40 xtmp ) (* (- 1) c_41 xtmp ) (* (- 1) c_41 xtmp xtmp ) (* (- 1) c_42 ) (* (- 2) c_42 xtmp ) (* (- 1) c_42 xtmp xtmp ) (* (- 1) c_43 xtmp ) (* (- 1) c_44 xtmp xtmp ) ) 0) )))
(assert (forall ((res Real) (xtmp Real) (x Real) (restmp Real) ) (=> (and (>= (+ (* (- 2) 1) (* 1 x ) ) 0) (>= (* 1 res ) 0) (>= (+ (* 1 res restmp s_32 ) (* 1 res s_31 ) (* 1 res s_33 x ) (* 1 res s_34 xtmp ) (* 1 res res s_35 ) (* 1 restmp s_36 ) (* 1 restmp s_37 x ) (* 1 restmp s_38 xtmp ) (* 1 restmp restmp s_39 ) (* 1 s_30 ) (* 1 s_40 x ) (* 1 s_41 x xtmp ) (* 1 s_42 x x ) (* 1 s_43 xtmp ) (* 1 s_44 xtmp xtmp ) ) 0) ) (>= (+ (* 1 res s_16 ) (* 1 res s_18 x ) (* (- 2) res s_19 ) (* 1 res s_19 x ) (* 1 res res s_20 ) (* 1 s_15 ) (* 1 s_25 x ) (* (- 2) s_26 x ) (* 1 s_26 x x ) (* 1 s_27 x x ) (* (- 2) s_28 ) (* 1 s_28 x ) (* 4 s_29 ) (* (- 4) s_29 x ) (* 1 s_29 x x ) ) 0) )))
(assert (forall ((res Real) (xtmp Real) (x Real) (restmp Real) ) (=> (and (>= (+ (* (- 2) 1) (* 1 x ) ) 0) (>= (* 1 res ) 0) (>= (+ (* 1 res restmp s_32 ) (* 1 res s_31 ) (* 1 res s_33 x ) (* 1 res s_34 xtmp ) (* 1 res res s_35 ) (* 1 restmp s_36 ) (* 1 restmp s_37 x ) (* 1 restmp s_38 xtmp ) (* 1 restmp restmp s_39 ) (* 1 s_30 ) (* 1 s_40 x ) (* 1 s_41 x xtmp ) (* 1 s_42 x x ) (* 1 s_43 xtmp ) (* 1 s_44 xtmp xtmp ) ) 0) ) (>= (+ (* 1 c_15 ) (* 1 c_16 res ) (* 1 c_18 res x ) (* (- 2) c_19 res ) (* 1 c_19 res x ) (* 1 c_20 res res ) (* 1 c_25 x ) (* (- 2) c_26 x ) (* 1 c_26 x x ) (* 1 c_27 x x ) (* (- 2) c_28 ) (* 1 c_28 x ) (* 4 c_29 ) (* (- 4) c_29 x ) (* 1 c_29 x x ) ) 0) )))
(assert (forall ((res Real) (xtmp Real) (x Real) (restmp Real) ) (=> (and (>= (+ (* (- 2) 1) (* 1 x ) ) 0) (>= (* 1 res ) 0) (>= (+ (* 1 res restmp s_32 ) (* 1 res s_31 ) (* 1 res s_33 x ) (* 1 res s_34 xtmp ) (* 1 res res s_35 ) (* 1 restmp s_36 ) (* 1 restmp s_37 x ) (* 1 restmp s_38 xtmp ) (* 1 restmp restmp s_39 ) (* 1 s_30 ) (* 1 s_40 x ) (* 1 s_41 x xtmp ) (* 1 s_42 x x ) (* 1 s_43 xtmp ) (* 1 s_44 xtmp xtmp ) ) 0) ) (>= (+ (* (- 1) 1) (* (- 1) c_15 ) (* (- 1) c_16 res ) (* (- 1) c_18 res x ) (* 2 c_19 res ) (* (- 1) c_19 res x ) (* (- 1) c_20 res res ) (* (- 1) c_25 x ) (* 2 c_26 x ) (* (- 1) c_26 x x ) (* (- 1) c_27 x x ) (* 2 c_28 ) (* (- 1) c_28 x ) (* (- 4) c_29 ) (* 4 c_29 x ) (* (- 1) c_29 x x ) (* 1 c_30 ) (* 1 c_31 res ) (* 1 c_32 res restmp ) (* 1 c_33 res x ) (* 1 c_34 res xtmp ) (* 1 c_35 res res ) (* 1 c_36 restmp ) (* 1 c_37 restmp x ) (* 1 c_38 restmp xtmp ) (* 1 c_39 restmp restmp ) (* 1 c_40 x ) (* 1 c_41 x xtmp ) (* 1 c_42 x x ) (* 1 c_43 xtmp ) (* 1 c_44 xtmp xtmp ) ) 0) )))
(assert (forall ((res Real) (xtmp Real) (x Real) (restmp Real) ) (=> (and (>= (+ (* 1 1) (* (- 1) x ) ) 0) (>= (* 1 res ) 0) (>= (+ (* 1 res restmp s_32 ) (* 1 res s_31 ) (* 1 res s_33 x ) (* 1 res s_34 xtmp ) (* 1 res res s_35 ) (* 1 restmp s_36 ) (* 1 restmp s_37 x ) (* 1 restmp s_38 xtmp ) (* 1 restmp restmp s_39 ) (* 1 s_30 ) (* 1 s_40 x ) (* 1 s_41 x xtmp ) (* 1 s_42 x x ) (* 1 s_43 xtmp ) (* 1 s_44 xtmp xtmp ) ) 0) ) (>= (+ (* 1 res restmp s_47 ) (* 1 res s_46 ) (* 1 res s_48 x ) (* 1 res s_49 xtmp ) (* 1 res res s_50 ) (* 1 restmp s_51 ) (* 1 restmp s_52 x ) (* 1 restmp s_53 xtmp ) (* 1 restmp restmp s_54 ) (* 1 s_45 ) (* 1 s_55 x ) (* 1 s_56 x xtmp ) (* 1 s_57 x x ) (* 1 s_58 xtmp ) (* 1 s_59 xtmp xtmp ) ) 0) )))
(assert (forall ((res Real) (xtmp Real) (x Real) (restmp Real) ) (=> (and (>= (+ (* 1 1) (* (- 1) x ) ) 0) (>= (* 1 res ) 0) (>= (+ (* 1 res restmp s_32 ) (* 1 res s_31 ) (* 1 res s_33 x ) (* 1 res s_34 xtmp ) (* 1 res res s_35 ) (* 1 restmp s_36 ) (* 1 restmp s_37 x ) (* 1 restmp s_38 xtmp ) (* 1 restmp restmp s_39 ) (* 1 s_30 ) (* 1 s_40 x ) (* 1 s_41 x xtmp ) (* 1 s_42 x x ) (* 1 s_43 xtmp ) (* 1 s_44 xtmp xtmp ) ) 0) ) (>= (+ (* 1 c_45 ) (* 1 c_46 res ) (* 1 c_47 res restmp ) (* 1 c_48 res x ) (* 1 c_49 res xtmp ) (* 1 c_50 res res ) (* 1 c_51 restmp ) (* 1 c_52 restmp x ) (* 1 c_53 restmp xtmp ) (* 1 c_54 restmp restmp ) (* 1 c_55 x ) (* 1 c_56 x xtmp ) (* 1 c_57 x x ) (* 1 c_58 xtmp ) (* 1 c_59 xtmp xtmp ) ) 0) )))

(check-sat)
(get-model)
